START_TIMESTAMP: 2026-04-23 23:37:12
LAMMPS (10 Sep 2025 - Development - patch_10Sep2025-10-g0d479cae29)
OMP_NUM_THREADS environment is not set. Defaulting to 1 thread.
  using 1 OpenMP thread(s) per MPI task
Reading data file ...
  triclinic box = (0 0 0) to (22.326 11.1412 13.778966) with tilt (0 -5.02603 0)
  8 by 4 by 6 MPI processor grid
  reading atoms ...
  304 atoms
  reading velocities ...
  304 velocities
  read_data CPU = 0.015 seconds
Replication is creating a 20x20x20 = 8000 times larger system...
  triclinic box = (0 0 0) to (446.52 222.824 275.57932) with tilt (0 -100.5206 0)
  8 by 4 by 6 MPI processor grid
  bounding box image = (0 -1 -1) to (0 1 1)
  bounding box extra memory = 0.03 MB
  average # of replicas added to proc = 130.50 out of 8000 (1.63%)
  2432000 atoms
  replicate CPU = 0.013 seconds

CITE-CITE-CITE-CITE-CITE-CITE-CITE-CITE-CITE-CITE-CITE-CITE-CITE

Your simulation uses code contributions which should be cited:
- pair reaxff command: doi:10.1016/j.parco.2011.08.005
- fix qeq/reaxff command: doi:10.1016/j.parco.2011.08.005
The log file lists these citations in BibTeX format.

CITE-CITE-CITE-CITE-CITE-CITE-CITE-CITE-CITE-CITE-CITE-CITE-CITE

Neighbor list info ...
  update: every = 20 steps, delay = 0 steps, check = no
  max neighbors/atom: 2000, page size: 100000
  master list distance cutoff = 11
  ghost atom cutoff = 11
  binsize = 5.5, bins = 100 41 51
  2 neighbor lists, perpetual/occasional/extra = 2 0 0
  (1) pair reaxff, perpetual
      attributes: half, newton off, ghost
      pair build: half/bin/ghost/newtoff
      stencil: full/ghost/bin/3d
      bin: standard
  (2) fix qeq/reax, perpetual, copy from (1)
      attributes: half, newton off
      pair build: copy
      stencil: none
      bin: none
Setting up Verlet run ...
  Unit style    : real
  Current step  : 0
  Time step     : 0.1
Per MPI rank memory allocation (min/avg/max) = 624 | 627.9 | 631.6 Mbytes
   Step          Temp          PotEng         Press          E_vdwl         E_coul         Volume    
         0   300           -113.27833      439.01861     -111.57687     -1.7014647      27418867     
        10   300.76561     -113.28044      744.34938     -111.579       -1.7014476      27418867     
        20   302.3948      -113.28515      1545.4902     -111.5838      -1.7013473      27418867     
        30   302.52736     -113.28541      4118.1952     -111.58428     -1.7011263      27418867     
        40   300.58476     -113.27955      6279.8983     -111.57875     -1.7008032      27418867     
        50   297.41803     -113.27007      6462.2447     -111.56964     -1.7004385      27418867     
        60   294.78953     -113.2622       6278.6043     -111.56213     -1.7000689      27418867     
        70   294.79502     -113.26217      7036.7738     -111.56248     -1.6996946      27418867     
        80   297.95995     -113.27158      8504.6767     -111.57226     -1.6993212      27418867     
        90   301.84175     -113.28315      9645.8658     -111.58416     -1.6989903      27418867     
       100   302.68485     -113.28561      10635.28      -111.58686     -1.6987535      27418867     
Loop time of 121.093 on 192 procs for 100 steps with 2432000 atoms

Performance: 0.007 ns/day, 3363.689 hours/ns, 0.826 timesteps/s, 2.008 Matom-step/s
98.4% CPU use with 192 MPI tasks x 1 OpenMP threads

MPI task timing breakdown:
Section |  min time  |  avg time  |  max time  |%varavg| %total
---------------------------------------------------------------
Pair    | 65.904     | 69.951     | 73.729     |  18.8 | 57.77
Neigh   | 0.85233    | 0.86998    | 0.91646    |   1.2 |  0.72
Comm    | 1.2365     | 4.783      | 8.8537     |  72.0 |  3.95
Output  | 0.027581   | 0.091134   | 0.19999    |  16.0 |  0.08
Modify  | 45.122     | 45.394     | 45.77      |   3.1 | 37.49
Other   |            | 0.004103   |            |       |  0.00

Nlocal:        12666.7 ave       12756 max       12575 min
Histogram: 32 0 0 18 24 73 13 0 3 29
Nghost:        24140.1 ave       24412 max       23840 min
Histogram: 44 20 0 0 0 27 37 1 31 32
Neighs:    3.80766e+06 ave 3.83297e+06 max 3.77988e+06 min
Histogram: 31 1 0 3 32 80 13 0 3 29

Total # of neighbors = 7.3107079e+08
Ave neighs/atom = 300.60476
Neighbor list builds = 5
Dangerous builds not checked
Total wall time: 0:02:04
END_TIMESTAMP: 2026-04-23 23:39:19
