LAMMPS (10 Sep 2025 - Development - patch_10Sep2025-10-g0d479cae29)
OMP_NUM_THREADS environment is not set. Defaulting to 1 thread.
  using 1 OpenMP thread(s) per MPI task
Reading data file ...
  triclinic box = (0 0 0) to (22.326 11.1412 13.778966) with tilt (0 -5.02603 0)
  4 by 4 by 4 MPI processor grid
  reading atoms ...
  304 atoms
  reading velocities ...
  304 velocities
  read_data CPU = 0.008 seconds
Replication is creating a 20x20x20 = 8000 times larger system...
  triclinic box = (0 0 0) to (446.52 222.824 275.57932) with tilt (0 -100.5206 0)
  4 by 4 by 4 MPI processor grid
  bounding box image = (0 -1 -1) to (0 1 1)
  bounding box extra memory = 0.03 MB
  average # of replicas added to proc = 253.75 out of 8000 (3.17%)
  2432000 atoms
  replicate CPU = 0.016 seconds

CITE-CITE-CITE-CITE-CITE-CITE-CITE-CITE-CITE-CITE-CITE-CITE-CITE

Your simulation uses code contributions which should be cited:
- pair reaxff command: doi:10.1016/j.parco.2011.08.005
- fix qeq/reaxff command: doi:10.1016/j.parco.2011.08.005
The log file lists these citations in BibTeX format.

CITE-CITE-CITE-CITE-CITE-CITE-CITE-CITE-CITE-CITE-CITE-CITE-CITE

Neighbor list info ...
  update: every = 20 steps, delay = 0 steps, check = no
  max neighbors/atom: 2000, page size: 100000
  master list distance cutoff = 11
  ghost atom cutoff = 11
  binsize = 5.5, bins = 100 41 51
  2 neighbor lists, perpetual/occasional/extra = 2 0 0
  (1) pair reaxff, perpetual
      attributes: half, newton off, ghost
      pair build: half/bin/ghost/newtoff
      stencil: full/ghost/bin/3d
      bin: standard
  (2) fix qeq/reax, perpetual, copy from (1)
      attributes: half, newton off
      pair build: copy
      stencil: none
      bin: none
Setting up Verlet run ...
  Unit style    : real
  Current step  : 0
  Time step     : 0.1
Per MPI rank memory allocation (min/avg/max) = 1466 | 1466 | 1466 Mbytes
   Step          Temp          PotEng         Press          E_vdwl         E_coul         Volume    
         0   300           -113.27833      439.01864     -111.57687     -1.7014647      27418867     
        10   300.76561     -113.28044      744.34936     -111.579       -1.7014476      27418867     
        20   302.3948      -113.28515      1545.4895     -111.5838      -1.7013473      27418867     
        30   302.52736     -113.28541      4118.2099     -111.58428     -1.7011262      27418867     
        40   300.58476     -113.27955      6279.8852     -111.57875     -1.7008033      27418867     
        50   297.41804     -113.27007      6462.2315     -111.56964     -1.7004385      27418867     
        60   294.78953     -113.2622       6278.5927     -111.56213     -1.700069       27418867     
        70   294.79503     -113.26217      7036.6865     -111.56248     -1.6996948      27418867     
        80   297.95996     -113.27158      8504.6829     -111.57226     -1.6993212      27418867     
        90   301.84176     -113.28315      9645.8582     -111.58416     -1.6989904      27418867     
       100   302.68485     -113.28561      10635.301     -111.58686     -1.6987535      27418867     
Loop time of 337.435 on 64 procs for 100 steps with 2432000 atoms

Performance: 0.003 ns/day, 9373.183 hours/ns, 0.296 timesteps/s, 720.732 katom-step/s
98.4% CPU use with 64 MPI tasks x 1 OpenMP threads

MPI task timing breakdown:
Section |  min time  |  avg time  |  max time  |%varavg| %total
---------------------------------------------------------------
Pair    | 184.38     | 195.42     | 205.08     |  32.6 | 57.91
Neigh   | 2.0982     | 2.1401     | 2.2197     |   1.5 |  0.63
Comm    | 2.0976     | 11.739     | 22.789     | 132.9 |  3.48
Output  | 0.016972   | 0.03194    | 0.048937   |   4.4 |  0.01
Modify  | 128.02     | 128.09     | 128.15     |   0.2 | 37.96
Other   |            | 0.0159     |            |       |  0.00

Nlocal:          38000 ave       38020 max       37977 min
Histogram: 1 2 3 14 12 11 6 4 6 5
Nghost:        46192.2 ave       46237 max       46143 min
Histogram: 1 0 5 6 13 19 13 6 0 1
Neighs:    1.08646e+07 ave 1.08698e+07 max 1.08586e+07 min
Histogram: 1 1 5 13 13 10 5 4 6 6

Total # of neighbors = 6.9533372e+08
Ave neighs/atom = 285.91025
Neighbor list builds = 5
Dangerous builds not checked
Total wall time: 0:05:46
START OF JOBSPEC
{"resources": [{"type": "node", "count": 1, "with": [{"type": "slot", "count": 64, "with": [{"type": "core", "count": 1}], "label": "task"}]}], "tasks": [{"command": ["lmp", "-v", "x", "20", "-v", "y", "20", "-v", "z", "20", "-in", "in.reaxff.hns"], "slot": "task", "count": {"per_slot": 1}}], "attributes": {"system": {"duration": 0, "cwd": "/opt/lammps-reax", "shell": {"options": {"rlimit": {"cpu": -1, "fsize": -1, "data": -1, "stack": 10485760, "core": -1, "nofile": 1048576, "as": -1, "rss": -1, "nproc": -1}}}}, "user": {"study_id": "lammps-reax-1-iter-9"}}, "version": 1}
START OF EVENTLOG
{"timestamp":1776618312.1370857,"name":"init"}
{"timestamp":1776618312.1451616,"name":"shell.init","context":{"service":"0-shell-fD7GRKPWf","leader-rank":0,"size":1}}
{"timestamp":1776618312.1376672,"name":"starting"}
{"timestamp":1776618312.2275331,"name":"shell.start","context":{"taskmap":{"version":1,"map":[[0,1,64,1]]}}}
{"timestamp":1776618661.3361554,"name":"shell.task-exit","context":{"localid":57,"rank":57,"state":"Exited","pid":1393,"wait_status":0,"signaled":0,"exitcode":0}}
{"timestamp":1776618661.7133198,"name":"complete","context":{"status":0}}
{"timestamp":1776618661.7133486,"name":"done"}

