LAMMPS (10 Sep 2025 - Development - patch_10Sep2025-10-g0d479cae29)
OMP_NUM_THREADS environment is not set. Defaulting to 1 thread.
  using 1 OpenMP thread(s) per MPI task
Reading data file ...
  triclinic box = (0 0 0) to (22.326 11.1412 13.778966) with tilt (0 -5.02603 0)
  8 by 5 by 8 MPI processor grid
  reading atoms ...
  304 atoms
  reading velocities ...
  304 velocities
  read_data CPU = 0.364 seconds
Replication is creating a 32x32x16 = 16384 times larger system...
  triclinic box = (0 0 0) to (714.432 356.5184 220.46346) with tilt (0 -80.41648 0)
  10 by 8 by 4 MPI processor grid
  bounding box image = (0 -1 -1) to (0 1 1)
  bounding box extra memory = 0.03 MB
  average # of replicas added to proc = 154.66 out of 16384 (0.94%)
  4980736 atoms
  replicate CPU = 0.065 seconds
Neighbor list info ...
  update: every = 20 steps, delay = 0 steps, check = no
  max neighbors/atom: 2000, page size: 100000
  master list distance cutoff = 11
  ghost atom cutoff = 11
  binsize = 5.5, bins = 145 65 41
  2 neighbor lists, perpetual/occasional/extra = 2 0 0
  (1) pair reaxff, perpetual
      attributes: half, newton off, ghost
      pair build: half/bin/ghost/newtoff
      stencil: full/ghost/bin/3d
      bin: standard
  (2) fix qeq/reax, perpetual, copy from (1)
      attributes: half, newton off
      pair build: copy
      stencil: none
      bin: none
Setting up Verlet run ...
  Unit style    : real
  Current step  : 0
  Time step     : 0.1
Per MPI rank memory allocation (min/avg/max) = 730.8 | 733.4 | 737.7 Mbytes
   Step          Temp          PotEng         Press          E_vdwl         E_coul         Volume    
         0   300           -113.27833      439.01968     -111.57687     -1.7014647      56153840     
        10   300.74771     -113.28039      773.69816     -111.57895     -1.7014387      56153840     
        20   302.38864     -113.28514      1624.1858     -111.58381     -1.7013289      56153840     
        30   302.53631     -113.28545      4214.1837     -111.58435     -1.701099       56153840     
        40   300.59037     -113.27958      6330.4547     -111.57881     -1.7007694      56153840     
        50   297.39585     -113.27001      6426.2305     -111.56961     -1.7004005      56153840     
        60   294.70843     -113.26196      6154.3196     -111.56193     -1.7000284      56153840     
        70   294.6222      -113.26166      6859.11       -111.562       -1.6996509      56153840     
        80   297.73062     -113.2709       8303.065      -111.57163     -1.6992742      56153840     
        90   301.62835     -113.28251      9425.5017     -111.58357     -1.6989408      56153840     
       100   302.51181     -113.2851       10387.037     -111.58639     -1.6987029      56153840     
Loop time of 142.233 on 320 procs for 100 steps with 4980736 atoms

Performance: 0.006 ns/day, 3950.928 hours/ns, 0.703 timesteps/s, 3.502 Matom-step/s
99.8% CPU use with 320 MPI tasks x 1 OpenMP threads

MPI task timing breakdown:
Section |  min time  |  avg time  |  max time  |%varavg| %total
---------------------------------------------------------------
Pair    | 77.619     | 83.57      | 88.642     |  23.5 | 58.76
Neigh   | 0.98247    | 0.99453    | 1.0596     |   0.9 |  0.70
Comm    | 1.1241     | 5.952      | 11.829     |  87.6 |  4.18
Output  | 0.013791   | 0.21568    | 0.41303    |  21.2 |  0.15
Modify  | 51.255     | 51.495     | 51.827     |   2.5 | 36.20
Other   |            | 0.005734   |            |       |  0.00

Nlocal:        15564.8 ave       15637 max       15483 min
Histogram: 26 46 52 4 6 52 6 6 80 42
Nghost:        27412.6 ave       27712 max       27191 min
Histogram: 61 22 45 44 35 49 0 0 0 64
Neighs:    4.63449e+06 ave 4.65534e+06 max 4.61021e+06 min
Histogram: 29 39 52 8 8 52 4 3 69 56

Total # of neighbors = 1.4830362e+09
Ave neighs/atom = 297.75442
Neighbor list builds = 5
Dangerous builds not checked
Total wall time: 0:02:26
START OF JOBSPEC
{"resources": [{"type": "node", "count": 5, "with": [{"type": "slot", "count": 64, "with": [{"type": "core", "count": 1}], "label": "task"}]}], "tasks": [{"command": ["lmp", "-v", "x", "32", "-v", "y", "32", "-v", "z", "16", "-in", "in.reaxff.hns", "-nocite"], "slot": "task", "count": {"per_slot": 1}}], "attributes": {"system": {"duration": 0, "cwd": "/opt/lammps-reax", "shell": {"options": {"rlimit": {"cpu": -1, "fsize": -1, "data": -1, "stack": 10485760, "core": -1, "nofile": 1048576, "as": -1, "rss": -1, "nproc": -1}}}}, "user": {"study_id": "lammps-reax-5-nocite-iter-4"}}, "version": 1}
START OF EVENTLOG
{"timestamp":1775939792.607609,"name":"init"}
{"timestamp":1775939792.6081369,"name":"starting"}
{"timestamp":1775939792.6186903,"name":"shell.init","context":{"service":"0-shell-fCmkxTWJs","leader-rank":0,"size":5}}
{"timestamp":1775939792.7026169,"name":"shell.start","context":{"taskmap":{"version":1,"map":[[0,5,64,1]]}}}
{"timestamp":1775939941.8787079,"name":"shell.task-exit","context":{"localid":61,"rank":189,"state":"Exited","pid":3839,"wait_status":0,"signaled":0,"exitcode":0}}
{"timestamp":1775939942.242147,"name":"complete","context":{"status":0}}
{"timestamp":1775939942.242167,"name":"done"}

