LAMMPS (10 Sep 2025 - Development - patch_10Sep2025-10-g0d479cae29)
OMP_NUM_THREADS environment is not set. Defaulting to 1 thread.
  using 1 OpenMP thread(s) per MPI task
Reading data file ...
  triclinic box = (0 0 0) to (22.326 11.1412 13.778966) with tilt (0 -5.02603 0)
  4 by 4 by 4 MPI processor grid
  reading atoms ...
  304 atoms
  reading velocities ...
  304 velocities
  read_data CPU = 0.004 seconds
Replication is creating a 2x2x2 = 8 times larger system...
  triclinic box = (0 0 0) to (44.652 22.2824 27.557932) with tilt (0 -10.05206 0)
  4 by 4 by 4 MPI processor grid
  bounding box image = (0 -1 -1) to (0 1 1)
  bounding box extra memory = 0.03 MB
  average # of replicas added to proc = 5.00 out of 8 (62.50%)
  2432 atoms
  replicate CPU = 0.002 seconds

CITE-CITE-CITE-CITE-CITE-CITE-CITE-CITE-CITE-CITE-CITE-CITE-CITE

Your simulation uses code contributions which should be cited:
- pair reaxff command: doi:10.1016/j.parco.2011.08.005
- fix qeq/reaxff command: doi:10.1016/j.parco.2011.08.005
The log file lists these citations in BibTeX format.

CITE-CITE-CITE-CITE-CITE-CITE-CITE-CITE-CITE-CITE-CITE-CITE-CITE

Neighbor list info ...
  update: every = 20 steps, delay = 0 steps, check = no
  max neighbors/atom: 2000, page size: 100000
  master list distance cutoff = 11
  ghost atom cutoff = 11
  binsize = 5.5, bins = 10 5 6
  2 neighbor lists, perpetual/occasional/extra = 2 0 0
  (1) pair reaxff, perpetual
      attributes: half, newton off, ghost
      pair build: half/bin/ghost/newtoff
      stencil: full/ghost/bin/3d
      bin: standard
  (2) fix qeq/reax, perpetual, copy from (1)
      attributes: half, newton off
      pair build: copy
      stencil: none
      bin: none
Setting up Verlet run ...
  Unit style    : real
  Current step  : 0
  Time step     : 0.1
Per MPI rank memory allocation (min/avg/max) = 40.47 | 40.84 | 41.11 Mbytes
   Step          Temp          PotEng         Press          E_vdwl         E_coul         Volume    
         0   300           -113.27833      437.52039     -111.57687     -1.7014647      27418.867    
        10   302.45195     -113.28552      3548.4046     -111.58441     -1.7011118      27418.867    
        20   302.39785     -113.28517      5963.8844     -111.58443     -1.7007341      27418.867    
        30   298.13028     -113.27217      10123.291     -111.57186     -1.700319       27418.867    
        40   293.43866     -113.25773      12827.542     -111.55785     -1.6998873      27418.867    
        50   292.17904     -113.2542       12089.279     -111.5547      -1.6994924      27418.867    
        60   293.82353     -113.25912      11172.945     -111.55996     -1.6991673      27418.867    
        70   296.20759     -113.26646      10459.451     -111.56756     -1.6988995      27418.867    
        80   297.98755     -113.27176      9488.4532     -111.5731      -1.6986631      27418.867    
        90   298.71674     -113.27395      8103.5028     -111.57548     -1.6984741      27418.867    
       100   297.70128     -113.27094      8201.541      -111.57255     -1.6983836      27418.867    
Loop time of 1.79797 on 64 procs for 100 steps with 2432 atoms

Performance: 0.481 ns/day, 49.944 hours/ns, 55.618 timesteps/s, 135.263 katom-step/s
98.6% CPU use with 64 MPI tasks x 1 OpenMP threads

MPI task timing breakdown:
Section |  min time  |  avg time  |  max time  |%varavg| %total
---------------------------------------------------------------
Pair    | 1.2086     | 1.3244     | 1.3851     |   3.9 | 73.66
Neigh   | 0.03801    | 0.039109   | 0.041728   |   0.3 |  2.18
Comm    | 0.032887   | 0.093716   | 0.20959    |  14.7 |  5.21
Output  | 0.0060533  | 0.0068244  | 0.0070657  |   0.2 |  0.38
Modify  | 0.33095    | 0.33361    | 0.33487    |   0.1 | 18.56
Other   |            | 0.0003518  |            |       |  0.02

Nlocal:             38 ave          42 max          35 min
Histogram: 7 6 12 0 13 13 0 9 2 2
Nghost:        2359.25 ave        2386 max        2332 min
Histogram: 7 5 3 4 9 12 6 8 4 6
Neighs:        17948.6 ave       19747 max       16528 min
Histogram: 7 6 7 5 13 11 2 9 2 2

Total # of neighbors = 1148712
Ave neighs/atom = 472.33224
Neighbor list builds = 5
Dangerous builds not checked
Total wall time: 0:00:02
START OF JOBSPEC
{"resources": [{"type": "node", "count": 1, "with": [{"type": "slot", "count": 64, "with": [{"type": "core", "count": 1}], "label": "task"}]}], "tasks": [{"command": ["lmp", "-v", "x", "2", "-v", "y", "2", "-v", "z", "2", "-in", "in.reaxff.hns"], "slot": "task", "count": {"per_slot": 1}}], "attributes": {"system": {"duration": 0, "cwd": "/opt/lammps-reax", "shell": {"options": {"rlimit": {"cpu": -1, "fsize": -1, "data": -1, "stack": 10485760, "core": -1, "nofile": 65536, "as": -1, "rss": -1, "nproc": -1}}}}, "user": {"study_id": "lammps-reax-1-iter-10"}}, "version": 1}
START OF EVENTLOG
{"timestamp":1776235176.283489,"name":"init"}
{"timestamp":1776235176.305959,"name":"shell.init","context":{"service":"0-shell-fJTJWZXUrB","leader-rank":0,"size":1}}
{"timestamp":1776235176.2962003,"name":"starting"}
{"timestamp":1776235176.3893137,"name":"shell.start","context":{"taskmap":{"version":1,"map":[[0,1,64,1]]}}}
{"timestamp":1776235180.7166276,"name":"shell.task-exit","context":{"localid":42,"rank":42,"state":"Exited","pid":908940,"wait_status":0,"signaled":0,"exitcode":0}}
{"timestamp":1776235180.7771752,"name":"complete","context":{"status":0}}
{"timestamp":1776235180.7772007,"name":"done"}

