LAMMPS (10 Sep 2025 - Development - patch_10Sep2025-10-g0d479cae29)
OMP_NUM_THREADS environment is not set. Defaulting to 1 thread.
  using 1 OpenMP thread(s) per MPI task
Reading data file ...
  triclinic box = (0 0 0) to (22.326 11.1412 13.778966) with tilt (0 -5.02603 0)
  8 by 5 by 8 MPI processor grid
  reading atoms ...
  304 atoms
  reading velocities ...
  304 velocities
  read_data CPU = 0.099 seconds
Replication is creating a 20x20x20 = 8000 times larger system...
  triclinic box = (0 0 0) to (446.52 222.824 275.57932) with tilt (0 -100.5206 0)
  8 by 5 by 8 MPI processor grid
  bounding box image = (0 -1 -1) to (0 1 1)
  bounding box extra memory = 0.03 MB
  average # of replicas added to proc = 93.00 out of 8000 (1.16%)
  2432000 atoms
  replicate CPU = 0.081 seconds

CITE-CITE-CITE-CITE-CITE-CITE-CITE-CITE-CITE-CITE-CITE-CITE-CITE

Your simulation uses code contributions which should be cited:
- pair reaxff command: doi:10.1016/j.parco.2011.08.005
- fix qeq/reaxff command: doi:10.1016/j.parco.2011.08.005
The log file lists these citations in BibTeX format.

CITE-CITE-CITE-CITE-CITE-CITE-CITE-CITE-CITE-CITE-CITE-CITE-CITE

Neighbor list info ...
  update: every = 20 steps, delay = 0 steps, check = no
  max neighbors/atom: 2000, page size: 100000
  master list distance cutoff = 11
  ghost atom cutoff = 11
  binsize = 5.5, bins = 100 41 51
  2 neighbor lists, perpetual/occasional/extra = 2 0 0
  (1) pair reaxff, perpetual
      attributes: half, newton off, ghost
      pair build: half/bin/ghost/newtoff
      stencil: full/ghost/bin/3d
      bin: standard
  (2) fix qeq/reax, perpetual, copy from (1)
      attributes: half, newton off
      pair build: copy
      stencil: none
      bin: none
Setting up Verlet run ...
  Unit style    : real
  Current step  : 0
  Time step     : 0.1
Per MPI rank memory allocation (min/avg/max) = 438.2 | 439.8 | 441.2 Mbytes
   Step          Temp          PotEng         Press          E_vdwl         E_coul         Volume    
         0   300           -113.27833      439.01861     -111.57687     -1.7014647      27418867     
        10   300.76561     -113.28044      744.34937     -111.579       -1.7014476      27418867     
        20   302.3948      -113.28515      1545.4902     -111.5838      -1.7013473      27418867     
        30   302.52736     -113.28541      4118.1681     -111.58428     -1.7011263      27418867     
        40   300.58476     -113.27955      6279.8631     -111.57875     -1.7008033      27418867     
        50   297.41803     -113.27007      6462.2783     -111.56964     -1.7004384      27418867     
        60   294.78954     -113.2622       6278.5592     -111.56213     -1.700069       27418867     
        70   294.79503     -113.26217      7036.7505     -111.56248     -1.6996946      27418867     
        80   297.95997     -113.27158      8504.6764     -111.57226     -1.6993212      27418867     
        90   301.84176     -113.28315      9645.7909     -111.58416     -1.6989905      27418867     
       100   302.68485     -113.28561      10635.251     -111.58686     -1.6987536      27418867     
Loop time of 78.4899 on 320 procs for 100 steps with 2432000 atoms

Performance: 0.011 ns/day, 2180.274 hours/ns, 1.274 timesteps/s, 3.098 Matom-step/s
98.3% CPU use with 320 MPI tasks x 1 OpenMP threads

MPI task timing breakdown:
Section |  min time  |  avg time  |  max time  |%varavg| %total
---------------------------------------------------------------
Pair    | 41.32      | 44.285     | 47.044     |  16.8 | 56.42
Neigh   | 0.58383    | 0.60022    | 0.6256     |   1.3 |  0.76
Comm    | 1.3424     | 3.984      | 6.9689     |  56.3 |  5.08
Output  | 0.018467   | 0.08866    | 0.21182    |  14.5 |  0.11
Modify  | 29.405     | 29.529     | 29.688     |   1.4 | 37.62
Other   |            | 0.002456   |            |       |  0.00

Nlocal:           7600 ave        7646 max        7558 min
Histogram: 12 51 18 37 70 45 8 16 53 10
Nghost:        18545.5 ave       18641 max       18448 min
Histogram: 30 48 17 57 8 0 38 47 48 27
Neighs:    2.36331e+06 ave 2.37628e+06 max 2.35139e+06 min
Histogram: 8 47 41 49 27 40 32 21 42 13

Total # of neighbors = 7.5626026e+08
Ave neighs/atom = 310.96228
Neighbor list builds = 5
Dangerous builds not checked
Total wall time: 0:01:21
START OF JOBSPEC
{"resources": [{"type": "node", "count": 5, "with": [{"type": "slot", "count": 64, "with": [{"type": "core", "count": 1}], "label": "task"}]}], "tasks": [{"command": ["lmp", "-v", "x", "20", "-v", "y", "20", "-v", "z", "20", "-in", "in.reaxff.hns"], "slot": "task", "count": {"per_slot": 1}}], "attributes": {"system": {"duration": 0, "cwd": "/opt/lammps-reax", "shell": {"options": {"rlimit": {"cpu": -1, "fsize": -1, "data": -1, "stack": 10485760, "core": -1, "nofile": 1048576, "as": -1, "rss": -1, "nproc": -1}, "cpu-affinity": "per-task"}}}, "user": {"study_id": "lammps-reax-5-affinity-iter-5"}}, "version": 1}
START OF EVENTLOG
{"timestamp":1776624364.9196393,"name":"init"}
{"timestamp":1776624364.9205627,"name":"starting"}
{"timestamp":1776624364.9310038,"name":"shell.init","context":{"service":"0-shell-fuZyVHmeo","leader-rank":0,"size":5}}
{"timestamp":1776624365.053546,"name":"shell.start","context":{"taskmap":{"version":1,"map":[[0,5,64,1]]}}}
{"timestamp":1776624448.690598,"name":"shell.task-exit","context":{"localid":58,"rank":58,"state":"Exited","pid":5751,"wait_status":0,"signaled":0,"exitcode":0}}
{"timestamp":1776624449.1900826,"name":"complete","context":{"status":0}}
{"timestamp":1776624449.1901064,"name":"done"}

