LAMMPS (10 Sep 2025 - Development - patch_10Sep2025-10-g0d479cae29)
OMP_NUM_THREADS environment is not set. Defaulting to 1 thread.
  using 1 OpenMP thread(s) per MPI task
Reading data file ...
  triclinic box = (0 0 0) to (22.326 11.1412 13.778966) with tilt (0 -5.02603 0)
  8 by 4 by 4 MPI processor grid
  reading atoms ...
  304 atoms
  reading velocities ...
  304 velocities
  read_data CPU = 0.054 seconds
Replication is creating a 20x20x20 = 8000 times larger system...
  triclinic box = (0 0 0) to (446.52 222.824 275.57932) with tilt (0 -100.5206 0)
  8 by 4 by 4 MPI processor grid
  bounding box image = (0 -1 -1) to (0 1 1)
  bounding box extra memory = 0.03 MB
  average # of replicas added to proc = 152.25 out of 8000 (1.90%)
  2432000 atoms
  replicate CPU = 0.014 seconds

CITE-CITE-CITE-CITE-CITE-CITE-CITE-CITE-CITE-CITE-CITE-CITE-CITE

Your simulation uses code contributions which should be cited:
- pair reaxff command: doi:10.1016/j.parco.2011.08.005
- fix qeq/reaxff command: doi:10.1016/j.parco.2011.08.005
The log file lists these citations in BibTeX format.

CITE-CITE-CITE-CITE-CITE-CITE-CITE-CITE-CITE-CITE-CITE-CITE-CITE

Neighbor list info ...
  update: every = 20 steps, delay = 0 steps, check = no
  max neighbors/atom: 2000, page size: 100000
  master list distance cutoff = 11
  ghost atom cutoff = 11
  binsize = 5.5, bins = 100 41 51
  2 neighbor lists, perpetual/occasional/extra = 2 0 0
  (1) pair reaxff, perpetual
      attributes: half, newton off, ghost
      pair build: half/bin/ghost/newtoff
      stencil: full/ghost/bin/3d
      bin: standard
  (2) fix qeq/reax, perpetual, copy from (1)
      attributes: half, newton off
      pair build: copy
      stencil: none
      bin: none
Setting up Verlet run ...
  Unit style    : real
  Current step  : 0
  Time step     : 0.1
Per MPI rank memory allocation (min/avg/max) = 846.6 | 847.9 | 849.2 Mbytes
   Step          Temp          PotEng         Press          E_vdwl         E_coul         Volume    
         0   300           -113.27833      439.0186      -111.57687     -1.7014647      27418867     
        10   300.76561     -113.28044      744.34937     -111.579       -1.7014476      27418867     
        20   302.3948      -113.28515      1545.4901     -111.5838      -1.7013473      27418867     
        30   302.52736     -113.28541      4118.1946     -111.58428     -1.7011263      27418867     
        40   300.58476     -113.27955      6279.8911     -111.57875     -1.7008032      27418867     
        50   297.41803     -113.27007      6462.2536     -111.56964     -1.7004385      27418867     
        60   294.78954     -113.2622       6278.5648     -111.56213     -1.700069       27418867     
        70   294.79504     -113.26217      7036.7479     -111.56248     -1.6996947      27418867     
        80   297.95996     -113.27158      8504.6777     -111.57226     -1.6993212      27418867     
        90   301.84175     -113.28315      9645.8611     -111.58416     -1.6989903      27418867     
       100   302.68485     -113.28561      10635.285     -111.58686     -1.6987535      27418867     
Loop time of 176.07 on 128 procs for 100 steps with 2432000 atoms

Performance: 0.005 ns/day, 4890.825 hours/ns, 0.568 timesteps/s, 1.381 Matom-step/s
98.4% CPU use with 128 MPI tasks x 1 OpenMP threads

MPI task timing breakdown:
Section |  min time  |  avg time  |  max time  |%varavg| %total
---------------------------------------------------------------
Pair    | 95.241     | 101.46     | 107.33     |  24.5 | 57.63
Neigh   | 1.174      | 1.1952     | 1.2291     |   1.1 |  0.68
Comm    | 1.7835     | 7.6086     | 13.852     |  89.6 |  4.32
Output  | 0.034142   | 0.095841   | 0.15391    |  11.8 |  0.05
Modify  | 65.647     | 65.699     | 65.771     |   0.3 | 37.31
Other   |            | 0.006524   |            |       |  0.00

Nlocal:          19000 ave       19060 max       18941 min
Histogram: 22 35 6 1 0 0 0 9 41 14
Nghost:        30257.4 ave       30312 max       30191 min
Histogram: 2 15 20 23 3 2 5 19 23 16
Neighs:    5.59235e+06 ave 5.60965e+06 max 5.57512e+06 min
Histogram: 26 32 5 1 0 0 0 7 43 14

Total # of neighbors = 7.1582044e+08
Ave neighs/atom = 294.33406
Neighbor list builds = 5
Dangerous builds not checked
Total wall time: 0:03:01
START OF JOBSPEC
{"resources": [{"type": "node", "count": 2, "with": [{"type": "slot", "count": 64, "with": [{"type": "core", "count": 1}], "label": "task"}]}], "tasks": [{"command": ["lmp", "-v", "x", "20", "-v", "y", "20", "-v", "z", "20", "-in", "in.reaxff.hns"], "slot": "task", "count": {"per_slot": 1}}], "attributes": {"system": {"duration": 0, "cwd": "/opt/lammps-reax", "shell": {"options": {"rlimit": {"cpu": -1, "fsize": -1, "data": -1, "stack": 10485760, "core": -1, "nofile": 1048576, "as": -1, "rss": -1, "nproc": -1}, "cpu-affinity": "per-task"}}}, "user": {"study_id": "lammps-reax-2-affinity-iter-9"}}, "version": 1}
START OF EVENTLOG
{"timestamp":1776621907.6773715,"name":"init"}
{"timestamp":1776621907.6880558,"name":"shell.init","context":{"service":"0-shell-fUPsX8P8T","leader-rank":1,"size":2}}
{"timestamp":1776621907.6781595,"name":"starting"}
{"timestamp":1776621907.7989409,"name":"shell.start","context":{"taskmap":{"version":1,"map":[[0,2,64,1]]}}}
{"timestamp":1776622091.3381217,"name":"shell.task-exit","context":{"localid":43,"rank":107,"state":"Exited","pid":3770,"wait_status":0,"signaled":0,"exitcode":0}}
{"timestamp":1776622091.817955,"name":"complete","context":{"status":0}}
{"timestamp":1776622091.8179774,"name":"done"}

