LAMMPS (10 Sep 2025 - Development - patch_10Sep2025-10-g0d479cae29)
OMP_NUM_THREADS environment is not set. Defaulting to 1 thread.
  using 1 OpenMP thread(s) per MPI task
Reading data file ...
  triclinic box = (0 0 0) to (22.326 11.1412 13.778966) with tilt (0 -5.02603 0)
  8 by 4 by 8 MPI processor grid
  reading atoms ...
  304 atoms
  reading velocities ...
  304 velocities
  read_data CPU = 0.146 seconds
Replication is creating a 20x20x20 = 8000 times larger system...
  triclinic box = (0 0 0) to (446.52 222.824 275.57932) with tilt (0 -100.5206 0)
  8 by 4 by 8 MPI processor grid
  bounding box image = (0 -1 -1) to (0 1 1)
  bounding box extra memory = 0.03 MB
  average # of replicas added to proc = 108.75 out of 8000 (1.36%)
  2432000 atoms
  replicate CPU = 0.130 seconds

CITE-CITE-CITE-CITE-CITE-CITE-CITE-CITE-CITE-CITE-CITE-CITE-CITE

Your simulation uses code contributions which should be cited:
- pair reaxff command: doi:10.1016/j.parco.2011.08.005
- fix qeq/reaxff command: doi:10.1016/j.parco.2011.08.005
The log file lists these citations in BibTeX format.

CITE-CITE-CITE-CITE-CITE-CITE-CITE-CITE-CITE-CITE-CITE-CITE-CITE

Neighbor list info ...
  update: every = 20 steps, delay = 0 steps, check = no
  max neighbors/atom: 2000, page size: 100000
  master list distance cutoff = 11
  ghost atom cutoff = 11
  binsize = 5.5, bins = 100 41 51
  2 neighbor lists, perpetual/occasional/extra = 2 0 0
  (1) pair reaxff, perpetual
      attributes: half, newton off, ghost
      pair build: half/bin/ghost/newtoff
      stencil: full/ghost/bin/3d
      bin: standard
  (2) fix qeq/reax, perpetual, copy from (1)
      attributes: half, newton off
      pair build: copy
      stencil: none
      bin: none
Setting up Verlet run ...
  Unit style    : real
  Current step  : 0
  Time step     : 0.1
Per MPI rank memory allocation (min/avg/max) = 512.2 | 514.7 | 516.5 Mbytes
   Step          Temp          PotEng         Press          E_vdwl         E_coul         Volume    
         0   300           -113.27833      439.01861     -111.57687     -1.7014647      27418867     
        10   300.76561     -113.28044      744.34938     -111.579       -1.7014476      27418867     
        20   302.3948      -113.28515      1545.4902     -111.5838      -1.7013473      27418867     
        30   302.52736     -113.28541      4118.1681     -111.58428     -1.7011263      27418867     
        40   300.58476     -113.27955      6279.8479     -111.57875     -1.7008033      27418867     
        50   297.41803     -113.27007      6462.2474     -111.56964     -1.7004385      27418867     
        60   294.78953     -113.2622       6278.5699     -111.56213     -1.700069       27418867     
        70   294.79503     -113.26217      7036.7442     -111.56248     -1.6996947      27418867     
        80   297.95997     -113.27158      8504.6715     -111.57226     -1.6993212      27418867     
        90   301.84176     -113.28315      9645.8606     -111.58416     -1.6989903      27418867     
       100   302.68485     -113.28561      10635.267     -111.58686     -1.6987536      27418867     
Loop time of 95.16 on 256 procs for 100 steps with 2432000 atoms

Performance: 0.009 ns/day, 2643.334 hours/ns, 1.051 timesteps/s, 2.556 Matom-step/s
98.3% CPU use with 256 MPI tasks x 1 OpenMP threads

MPI task timing breakdown:
Section |  min time  |  avg time  |  max time  |%varavg| %total
---------------------------------------------------------------
Pair    | 50.648     | 54.176     | 57.925     |  18.2 | 56.93
Neigh   | 0.68999    | 0.70769    | 0.73553    |   1.3 |  0.74
Comm    | 1.0541     | 4.5168     | 8.0684     |  63.0 |  4.75
Output  | 0.11476    | 0.21963    | 0.36246    |  10.7 |  0.23
Modify  | 35.309     | 35.537     | 35.838     |   3.1 | 37.34
Other   |            | 0.002934   |            |       |  0.00

Nlocal:           9500 ave        9556 max        9448 min
Histogram: 11 39 15 22 62 39 4 14 38 12
Nghost:        21027.7 ave       21133 max       20915 min
Histogram: 19 43 12 50 4 0 17 49 41 21
Neighs:    2.91868e+06 ave 2.93406e+06 max 2.90444e+06 min
Histogram: 9 39 29 40 17 39 20 18 28 17

Total # of neighbors = 7.4718278e+08
Ave neighs/atom = 307.22976
Neighbor list builds = 5
Dangerous builds not checked
Total wall time: 0:01:38
START OF JOBSPEC
{"resources": [{"type": "node", "count": 4, "with": [{"type": "slot", "count": 64, "with": [{"type": "core", "count": 1}], "label": "task"}]}], "tasks": [{"command": ["lmp", "-v", "x", "20", "-v", "y", "20", "-v", "z", "20", "-in", "in.reaxff.hns"], "slot": "task", "count": {"per_slot": 1}}], "attributes": {"system": {"duration": 0, "cwd": "/opt/lammps-reax", "shell": {"options": {"rlimit": {"cpu": -1, "fsize": -1, "data": -1, "stack": 10485760, "core": -1, "nofile": 1048576, "as": -1, "rss": -1, "nproc": -1}}}}, "user": {"study_id": "lammps-reax-4-iter-5"}}, "version": 1}
START OF EVENTLOG
{"timestamp":1776624077.6732943,"name":"init"}
{"timestamp":1776624077.6742301,"name":"starting"}
{"timestamp":1776624077.6854179,"name":"shell.init","context":{"service":"0-shell-fuZpmjzZD","leader-rank":1,"size":4}}
{"timestamp":1776624077.7709332,"name":"shell.start","context":{"taskmap":{"version":1,"map":[[0,4,64,1]]}}}
{"timestamp":1776624178.6558297,"name":"shell.task-exit","context":{"localid":35,"rank":99,"state":"Exited","pid":6204,"wait_status":0,"signaled":0,"exitcode":0}}
{"timestamp":1776624179.1502964,"name":"complete","context":{"status":0}}
{"timestamp":1776624179.1503251,"name":"done"}

